p cnf 12 50 
-4 2 11 0
4 1 7 0
-2 1 4 0
-3 -10 7 0
1 10 -5 0
-1 -2 6 0
-6 -10 -4 0
8 -9 7 0
-9 6 5 0
-5 11 9 0
5 -6 -3 0
-8 7 5 0
-1 2 9 0
7 -2 -4 0
2 -7 -8 0
10 -8 7 0
-5 -2 9 0
1 -6 12 0
-7 9 -3 0
-2 -6 1 0
8 10 -4 0
-2 -7 -4 0
5 10 11 0
-8 -1 -5 0
-4 1 -6 0
6 4 5 0
-4 12 -11 0
9 -12 -7 0
-1 11 10 0
12 7 -3 0
-9 -11 12 0
-4 1 11 0
5 6 12 0
-10 -12 1 0
6 2 7 0
5 10 -12 0
6 3 11 0
8 -9 5 0
12 8 -2 0
-5 1 -2 0
3 -2 6 0
-7 -11 5 0
-1 12 -8 0
2 1 12 0
-7 -12 -10 0
-12 6 -7 0
10 -6 -8 0
-10 -11 3 0
-6 9 7 0
2 7 -12 0
